p cnf 200 1110
-101 64 0
-101 -26 0
-101 48 0
-101 -42 0
-101 -84 0
-101 -35 0
-101 3 0
-101 19 0
-101 90 0
-101 34 0
101 -64 26 -48 42 84 35 -3 -19 -90 -34 0
-102 -19 0
-102 -87 0
-102 -92 0
-102 -78 0
-102 12 0
-102 -44 0
-102 -23 0
-102 84 0
-102 83 0
-102 -8 0
102 19 87 92 78 -12 44 23 -84 -83 8 0
-103 88 0
-103 -43 0
-103 -96 0
-103 -32 0
-103 -75 0
-103 -48 0
-103 59 0
-103 17 0
-103 -56 0
-103 -89 0
103 -88 43 96 32 75 48 -59 -17 56 89 0
-104 -53 0
-104 -93 0
-104 -71 0
-104 35 0
-104 34 0
-104 -99 0
-104 69 0
-104 -5 0
-104 42 0
-104 9 0
104 53 93 71 -35 -34 99 -69 5 -42 -9 0
-105 44 0
-105 -35 0
-105 14 0
-105 59 0
-105 -85 0
-105 -66 0
-105 -21 0
-105 -71 0
-105 -4 0
-105 -100 0
105 -44 35 -14 -59 85 66 21 71 4 100 0
-106 65 0
-106 -76 0
-106 41 0
-106 2 0
-106 -40 0
-106 61 0
-106 88 0
-106 56 0
-106 50 0
-106 5 0
106 -65 76 -41 -2 40 -61 -88 -56 -50 -5 0
-107 74 0
-107 53 0
-107 -91 0
-107 -62 0
-107 75 0
-107 -38 0
-107 -95 0
-107 -52 0
-107 8 0
-107 77 0
107 -74 -53 91 62 -75 38 95 52 -8 -77 0
-108 -32 0
-108 -45 0
-108 -39 0
-108 3 0
-108 -92 0
-108 -79 0
-108 -59 0
-108 28 0
-108 -29 0
-108 -19 0
108 32 45 39 -3 92 79 59 -28 29 19 0
-109 96 0
-109 -63 0
-109 -30 0
-109 -49 0
-109 -53 0
-109 -24 0
-109 -65 0
-109 -27 0
-109 21 0
-109 -36 0
109 -96 63 30 49 53 24 65 27 -21 36 0
-110 -12 0
-110 -85 0
-110 80 0
-110 -45 0
-110 6 0
-110 -36 0
-110 78 0
-110 -44 0
-110 -52 0
-110 -73 0
110 12 85 -80 45 -6 36 -78 44 52 73 0
101 102 103 104 105 106 107 108 109 110 0
-111 -39 0
-111 9 0
-111 85 0
-111 -34 0
-111 -43 0
-111 -8 0
-111 -99 0
-111 3 0
-111 -54 0
-111 -10 0
111 39 -9 -85 34 43 8 99 -3 54 10 0
-112 -10 0
-112 -1 0
-112 33 0
-112 83 0
-112 -71 0
-112 -44 0
-112 62 0
-112 -11 0
-112 -49 0
-112 -50 0
112 10 1 -33 -83 71 44 -62 11 49 50 0
-113 -78 0
-113 -87 0
-113 -25 0
-113 45 0
-113 -95 0
-113 -28 0
-113 -72 0
-113 58 0
-113 33 0
-113 100 0
113 78 87 25 -45 95 28 72 -58 -33 -100 0
-114 89 0
-114 53 0
-114 -75 0
-114 86 0
-114 -49 0
-114 84 0
-114 -1 0
-114 31 0
-114 -61 0
-114 35 0
114 -89 -53 75 -86 49 -84 1 -31 61 -35 0
-115 32 0
-115 -21 0
-115 -64 0
-115 -91 0
-115 27 0
-115 9 0
-115 96 0
-115 37 0
-115 94 0
-115 74 0
115 -32 21 64 91 -27 -9 -96 -37 -94 -74 0
-116 -47 0
-116 -21 0
-116 -83 0
-116 29 0
-116 -91 0
-116 74 0
-116 34 0
-116 85 0
-116 88 0
-116 -94 0
116 47 21 83 -29 91 -74 -34 -85 -88 94 0
-117 90 0
-117 65 0
-117 -82 0
-117 -59 0
-117 92 0
-117 -87 0
-117 -77 0
-117 26 0
-117 56 0
-117 -17 0
117 -90 -65 82 59 -92 87 77 -26 -56 17 0
-118 -27 0
-118 -76 0
-118 -53 0
-118 -35 0
-118 -70 0
-118 -37 0
-118 79 0
-118 26 0
-118 32 0
-118 99 0
118 27 76 53 35 70 37 -79 -26 -32 -99 0
-119 40 0
-119 -44 0
-119 49 0
-119 -58 0
-119 77 0
-119 -94 0
-119 -53 0
-119 -63 0
-119 100 0
-119 52 0
119 -40 44 -49 58 -77 94 53 63 -100 -52 0
-120 15 0
-120 50 0
-120 21 0
-120 13 0
-120 -98 0
-120 -30 0
-120 14 0
-120 -45 0
-120 -37 0
-120 73 0
120 -15 -50 -21 -13 98 30 -14 45 37 -73 0
111 112 113 114 115 116 117 118 119 120 0
-121 -87 0
-121 63 0
-121 -19 0
-121 24 0
-121 -26 0
-121 51 0
-121 -88 0
-121 -1 0
-121 6 0
-121 -77 0
121 87 -63 19 -24 26 -51 88 1 -6 77 0
-122 -79 0
-122 69 0
-122 57 0
-122 1 0
-122 44 0
-122 99 0
-122 40 0
-122 38 0
-122 -12 0
-122 81 0
122 79 -69 -57 -1 -44 -99 -40 -38 12 -81 0
-123 44 0
-123 -17 0
-123 -7 0
-123 -63 0
-123 -34 0
-123 -13 0
-123 -26 0
-123 91 0
-123 80 0
-123 -50 0
123 -44 17 7 63 34 13 26 -91 -80 50 0
-124 -8 0
-124 45 0
-124 -75 0
-124 -84 0
-124 -27 0
-124 -6 0
-124 -74 0
-124 94 0
-124 -17 0
-124 70 0
124 8 -45 75 84 27 6 74 -94 17 -70 0
-125 63 0
-125 -45 0
-125 93 0
-125 8 0
-125 -54 0
-125 28 0
-125 9 0
-125 -86 0
-125 87 0
-125 -51 0
125 -63 45 -93 -8 54 -28 -9 86 -87 51 0
-126 95 0
-126 35 0
-126 80 0
-126 10 0
-126 7 0
-126 -62 0
-126 -50 0
-126 36 0
-126 -40 0
-126 14 0
126 -95 -35 -80 -10 -7 62 50 -36 40 -14 0
-127 -86 0
-127 -90 0
-127 -40 0
-127 2 0
-127 -14 0
-127 -28 0
-127 -98 0
-127 84 0
-127 27 0
-127 56 0
127 86 90 40 -2 14 28 98 -84 -27 -56 0
-128 -7 0
-128 -92 0
-128 30 0
-128 40 0
-128 83 0
-128 91 0
-128 12 0
-128 -25 0
-128 51 0
-128 10 0
128 7 92 -30 -40 -83 -91 -12 25 -51 -10 0
-129 44 0
-129 78 0
-129 11 0
-129 -37 0
-129 -26 0
-129 41 0
-129 -94 0
-129 -22 0
-129 -87 0
-129 50 0
129 -44 -78 -11 37 26 -41 94 22 87 -50 0
-130 -10 0
-130 -30 0
-130 29 0
-130 69 0
-130 3 0
-130 36 0
-130 -85 0
-130 50 0
-130 25 0
-130 91 0
130 10 30 -29 -69 -3 -36 85 -50 -25 -91 0
121 122 123 124 125 126 127 128 129 130 0
-131 -25 0
-131 97 0
-131 -58 0
-131 -39 0
-131 -7 0
-131 22 0
-131 -59 0
-131 93 0
-131 71 0
-131 -28 0
131 25 -97 58 39 7 -22 59 -93 -71 28 0
-132 23 0
-132 97 0
-132 -15 0
-132 54 0
-132 7 0
-132 -6 0
-132 35 0
-132 -74 0
-132 86 0
-132 66 0
132 -23 -97 15 -54 -7 6 -35 74 -86 -66 0
-133 -73 0
-133 -68 0
-133 -24 0
-133 -77 0
-133 -2 0
-133 -99 0
-133 56 0
-133 32 0
-133 -36 0
-133 94 0
133 73 68 24 77 2 99 -56 -32 36 -94 0
-134 -31 0
-134 -47 0
-134 60 0
-134 96 0
-134 -95 0
-134 29 0
-134 15 0
-134 -17 0
-134 45 0
-134 53 0
134 31 47 -60 -96 95 -29 -15 17 -45 -53 0
-135 39 0
-135 26 0
-135 28 0
-135 -97 0
-135 12 0
-135 38 0
-135 -16 0
-135 96 0
-135 93 0
-135 52 0
135 -39 -26 -28 97 -12 -38 16 -96 -93 -52 0
-136 -23 0
-136 65 0
-136 46 0
-136 -61 0
-136 -92 0
-136 7 0
-136 -13 0
-136 -81 0
-136 -84 0
-136 -80 0
136 23 -65 -46 61 92 -7 13 81 84 80 0
-137 67 0
-137 98 0
-137 70 0
-137 12 0
-137 -49 0
-137 -26 0
-137 -100 0
-137 85 0
-137 -61 0
-137 -64 0
137 -67 -98 -70 -12 49 26 100 -85 61 64 0
-138 -78 0
-138 -62 0
-138 100 0
-138 -95 0
-138 -84 0
-138 -89 0
-138 -8 0
-138 92 0
-138 13 0
-138 -35 0
138 78 62 -100 95 84 89 8 -92 -13 35 0
-139 24 0
-139 -90 0
-139 56 0
-139 5 0
-139 -1 0
-139 65 0
-139 -91 0
-139 38 0
-139 -45 0
-139 89 0
139 -24 90 -56 -5 1 -65 91 -38 45 -89 0
-140 83 0
-140 -13 0
-140 -71 0
-140 -86 0
-140 -5 0
-140 77 0
-140 47 0
-140 91 0
-140 -1 0
-140 -33 0
140 -83 13 71 86 5 -77 -47 -91 1 33 0
131 132 133 134 135 136 137 138 139 140 0
-141 46 0
-141 89 0
-141 -63 0
-141 72 0
-141 -88 0
-141 -38 0
-141 -24 0
-141 -99 0
-141 -32 0
-141 50 0
141 -46 -89 63 -72 88 38 24 99 32 -50 0
-142 24 0
-142 -46 0
-142 -40 0
-142 78 0
-142 85 0
-142 83 0
-142 -68 0
-142 -79 0
-142 30 0
-142 61 0
142 -24 46 40 -78 -85 -83 68 79 -30 -61 0
-143 7 0
-143 97 0
-143 -17 0
-143 -63 0
-143 68 0
-143 52 0
-143 -60 0
-143 48 0
-143 -83 0
-143 -57 0
143 -7 -97 17 63 -68 -52 60 -48 83 57 0
-144 6 0
-144 -65 0
-144 38 0
-144 69 0
-144 -88 0
-144 -68 0
-144 -47 0
-144 -59 0
-144 70 0
-144 21 0
144 -6 65 -38 -69 88 68 47 59 -70 -21 0
-145 78 0
-145 14 0
-145 93 0
-145 28 0
-145 5 0
-145 7 0
-145 72 0
-145 19 0
-145 77 0
-145 -65 0
145 -78 -14 -93 -28 -5 -7 -72 -19 -77 65 0
-146 49 0
-146 91 0
-146 -76 0
-146 -88 0
-146 95 0
-146 -32 0
-146 71 0
-146 100 0
-146 -31 0
-146 51 0
146 -49 -91 76 88 -95 32 -71 -100 31 -51 0
-147 90 0
-147 -46 0
-147 -96 0
-147 -2 0
-147 -69 0
-147 95 0
-147 -9 0
-147 -52 0
-147 -79 0
-147 70 0
147 -90 46 96 2 69 -95 9 52 79 -70 0
-148 31 0
-148 54 0
-148 18 0
-148 32 0
-148 -30 0
-148 -10 0
-148 23 0
-148 50 0
-148 42 0
-148 -8 0
148 -31 -54 -18 -32 30 10 -23 -50 -42 8 0
-149 -77 0
-149 -24 0
-149 52 0
-149 -93 0
-149 -43 0
-149 63 0
-149 56 0
-149 -38 0
-149 -79 0
-149 28 0
149 77 24 -52 93 43 -63 -56 38 79 -28 0
-150 90 0
-150 44 0
-150 99 0
-150 9 0
-150 15 0
-150 63 0
-150 -61 0
-150 -40 0
-150 62 0
-150 -28 0
150 -90 -44 -99 -9 -15 -63 61 40 -62 28 0
141 142 143 144 145 146 147 148 149 150 0
-151 -75 0
-151 -91 0
-151 86 0
-151 78 0
-151 68 0
-151 -19 0
-151 -47 0
-151 65 0
-151 -13 0
-151 25 0
151 75 91 -86 -78 -68 19 47 -65 13 -25 0
-152 -99 0
-152 -34 0
-152 54 0
-152 -87 0
-152 -9 0
-152 38 0
-152 8 0
-152 -18 0
-152 -72 0
-152 13 0
152 99 34 -54 87 9 -38 -8 18 72 -13 0
-153 -41 0
-153 -8 0
-153 -57 0
-153 81 0
-153 34 0
-153 96 0
-153 -59 0
-153 14 0
-153 19 0
-153 -2 0
153 41 8 57 -81 -34 -96 59 -14 -19 2 0
-154 -72 0
-154 -97 0
-154 8 0
-154 50 0
-154 -42 0
-154 -75 0
-154 4 0
-154 -39 0
-154 88 0
-154 5 0
154 72 97 -8 -50 42 75 -4 39 -88 -5 0
-155 38 0
-155 5 0
-155 -93 0
-155 35 0
-155 -98 0
-155 -49 0
-155 70 0
-155 -54 0
-155 10 0
-155 22 0
155 -38 -5 93 -35 98 49 -70 54 -10 -22 0
-156 -94 0
-156 -60 0
-156 -7 0
-156 32 0
-156 62 0
-156 -93 0
-156 99 0
-156 -90 0
-156 -27 0
-156 37 0
156 94 60 7 -32 -62 93 -99 90 27 -37 0
-157 -46 0
-157 -72 0
-157 8 0
-157 50 0
-157 31 0
-157 -79 0
-157 -74 0
-157 100 0
-157 -29 0
-157 90 0
157 46 72 -8 -50 -31 79 74 -100 29 -90 0
-158 70 0
-158 9 0
-158 -100 0
-158 -48 0
-158 -27 0
-158 52 0
-158 80 0
-158 -47 0
-158 -2 0
-158 -35 0
158 -70 -9 100 48 27 -52 -80 47 2 35 0
-159 -18 0
-159 -68 0
-159 -87 0
-159 -31 0
-159 47 0
-159 50 0
-159 16 0
-159 9 0
-159 -6 0
-159 -14 0
159 18 68 87 31 -47 -50 -16 -9 6 14 0
-160 -82 0
-160 60 0
-160 47 0
-160 -61 0
-160 -92 0
-160 -11 0
-160 63 0
-160 55 0
-160 6 0
-160 -30 0
160 82 -60 -47 61 92 11 -63 -55 -6 30 0
151 152 153 154 155 156 157 158 159 160 0
-161 44 0
-161 -61 0
-161 27 0
-161 45 0
-161 -50 0
-161 83 0
-161 18 0
-161 64 0
-161 -15 0
-161 -79 0
161 -44 61 -27 -45 50 -83 -18 -64 15 79 0
-162 -77 0
-162 83 0
-162 -94 0
-162 -57 0
-162 64 0
-162 79 0
-162 21 0
-162 47 0
-162 -53 0
-162 -97 0
162 77 -83 94 57 -64 -79 -21 -47 53 97 0
-163 89 0
-163 -1 0
-163 -78 0
-163 60 0
-163 84 0
-163 -74 0
-163 73 0
-163 20 0
-163 42 0
-163 -81 0
163 -89 1 78 -60 -84 74 -73 -20 -42 81 0
-164 -97 0
-164 -27 0
-164 54 0
-164 100 0
-164 56 0
-164 36 0
-164 -47 0
-164 -48 0
-164 37 0
-164 10 0
164 97 27 -54 -100 -56 -36 47 48 -37 -10 0
-165 6 0
-165 -40 0
-165 -33 0
-165 15 0
-165 84 0
-165 -22 0
-165 99 0
-165 59 0
-165 98 0
-165 -62 0
165 -6 40 33 -15 -84 22 -99 -59 -98 62 0
-166 -94 0
-166 44 0
-166 -2 0
-166 -11 0
-166 -3 0
-166 45 0
-166 -85 0
-166 10 0
-166 -93 0
-166 -57 0
166 94 -44 2 11 3 -45 85 -10 93 57 0
-167 65 0
-167 79 0
-167 -54 0
-167 58 0
-167 -18 0
-167 89 0
-167 25 0
-167 -16 0
-167 -94 0
-167 -84 0
167 -65 -79 54 -58 18 -89 -25 16 94 84 0
-168 -8 0
-168 -65 0
-168 -18 0
-168 80 0
-168 33 0
-168 -56 0
-168 32 0
-168 -45 0
-168 38 0
-168 -88 0
168 8 65 18 -80 -33 56 -32 45 -38 88 0
-169 -73 0
-169 -6 0
-169 26 0
-169 40 0
-169 18 0
-169 52 0
-169 24 0
-169 -27 0
-169 84 0
-169 62 0
169 73 6 -26 -40 -18 -52 -24 27 -84 -62 0
-170 4 0
-170 -62 0
-170 -78 0
-170 51 0
-170 -43 0
-170 34 0
-170 -31 0
-170 17 0
-170 -77 0
-170 -56 0
170 -4 62 78 -51 43 -34 31 -17 77 56 0
161 162 163 164 165 166 167 168 169 170 0
-171 -9 0
-171 67 0
-171 -41 0
-171 28 0
-171 -22 0
-171 57 0
-171 56 0
-171 -33 0
-171 -13 0
-171 -74 0
171 9 -67 41 -28 22 -57 -56 33 13 74 0
-172 90 0
-172 9 0
-172 -35 0
-172 -89 0
-172 -82 0
-172 -84 0
-172 -70 0
-172 50 0
-172 27 0
-172 68 0
172 -90 -9 35 89 82 84 70 -50 -27 -68 0
-173 38 0
-173 88 0
-173 -30 0
-173 36 0
-173 33 0
-173 -53 0
-173 70 0
-173 -87 0
-173 13 0
-173 -82 0
173 -38 -88 30 -36 -33 53 -70 87 -13 82 0
-174 -86 0
-174 -76 0
-174 90 0
-174 -34 0
-174 -82 0
-174 17 0
-174 42 0
-174 -98 0
-174 -51 0
-174 33 0
174 86 76 -90 34 82 -17 -42 98 51 -33 0
-175 42 0
-175 7 0
-175 90 0
-175 -83 0
-175 72 0
-175 -97 0
-175 -94 0
-175 31 0
-175 17 0
-175 -15 0
175 -42 -7 -90 83 -72 97 94 -31 -17 15 0
-176 -36 0
-176 -69 0
-176 -30 0
-176 14 0
-176 -28 0
-176 -71 0
-176 93 0
-176 49 0
-176 -98 0
-176 -57 0
176 36 69 30 -14 28 71 -93 -49 98 57 0
-177 30 0
-177 -24 0
-177 79 0
-177 20 0
-177 92 0
-177 -27 0
-177 48 0
-177 2 0
-177 51 0
-177 73 0
177 -30 24 -79 -20 -92 27 -48 -2 -51 -73 0
-178 -59 0
-178 6 0
-178 -45 0
-178 -35 0
-178 43 0
-178 -34 0
-178 -83 0
-178 36 0
-178 -50 0
-178 17 0
178 59 -6 45 35 -43 34 83 -36 50 -17 0
-179 -18 0
-179 -64 0
-179 25 0
-179 -7 0
-179 -88 0
-179 -58 0
-179 -45 0
-179 -98 0
-179 6 0
-179 72 0
179 18 64 -25 7 88 58 45 98 -6 -72 0
-180 -11 0
-180 52 0
-180 -94 0
-180 -72 0
-180 -77 0
-180 73 0
-180 56 0
-180 -43 0
-180 61 0
-180 -76 0
180 11 -52 94 72 77 -73 -56 43 -61 76 0
171 172 173 174 175 176 177 178 179 180 0
-181 -18 0
-181 -22 0
-181 -77 0
-181 -64 0
-181 2 0
-181 -80 0
-181 97 0
-181 -69 0
-181 -94 0
-181 -93 0
181 18 22 77 64 -2 80 -97 69 94 93 0
-182 85 0
-182 -17 0
-182 3 0
-182 82 0
-182 -20 0
-182 -45 0
-182 83 0
-182 -98 0
-182 -97 0
-182 78 0
182 -85 17 -3 -82 20 45 -83 98 97 -78 0
-183 -18 0
-183 66 0
-183 -89 0
-183 -40 0
-183 19 0
-183 -81 0
-183 43 0
-183 8 0
-183 -33 0
-183 -15 0
183 18 -66 89 40 -19 81 -43 -8 33 15 0
-184 -57 0
-184 -84 0
-184 -59 0
-184 71 0
-184 -54 0
-184 7 0
-184 -50 0
-184 -46 0
-184 35 0
-184 87 0
184 57 84 59 -71 54 -7 50 46 -35 -87 0
-185 51 0
-185 91 0
-185 -24 0
-185 -28 0
-185 52 0
-185 -99 0
-185 -37 0
-185 76 0
-185 -45 0
-185 68 0
185 -51 -91 24 28 -52 99 37 -76 45 -68 0
-186 27 0
-186 19 0
-186 69 0
-186 80 0
-186 -35 0
-186 46 0
-186 92 0
-186 -96 0
-186 -31 0
-186 61 0
186 -27 -19 -69 -80 35 -46 -92 96 31 -61 0
-187 -44 0
-187 83 0
-187 -98 0
-187 11 0
-187 34 0
-187 78 0
-187 66 0
-187 30 0
-187 79 0
-187 -99 0
187 44 -83 98 -11 -34 -78 -66 -30 -79 99 0
-188 25 0
-188 -21 0
-188 -98 0
-188 16 0
-188 -61 0
-188 -40 0
-188 94 0
-188 71 0
-188 42 0
-188 -43 0
188 -25 21 98 -16 61 40 -94 -71 -42 43 0
-189 -33 0
-189 -29 0
-189 41 0
-189 -76 0
-189 -17 0
-189 20 0
-189 24 0
-189 28 0
-189 -92 0
-189 -31 0
189 33 29 -41 76 17 -20 -24 -28 92 31 0
-190 -67 0
-190 91 0
-190 73 0
-190 -34 0
-190 94 0
-190 -10 0
-190 79 0
-190 -100 0
-190 -53 0
-190 42 0
190 67 -91 -73 34 -94 10 -79 100 53 -42 0
181 182 183 184 185 186 187 188 189 190 0
-191 -6 0
-191 14 0
-191 25 0
-191 -92 0
-191 2 0
-191 -18 0
-191 89 0
-191 16 0
-191 95 0
-191 -54 0
191 6 -14 -25 92 -2 18 -89 -16 -95 54 0
-192 -21 0
-192 -100 0
-192 75 0
-192 -65 0
-192 77 0
-192 -87 0
-192 -16 0
-192 7 0
-192 56 0
-192 26 0
192 21 100 -75 65 -77 87 16 -7 -56 -26 0
-193 -45 0
-193 41 0
-193 -28 0
-193 51 0
-193 -78 0
-193 25 0
-193 -69 0
-193 77 0
-193 26 0
-193 48 0
193 45 -41 28 -51 78 -25 69 -77 -26 -48 0
-194 22 0
-194 47 0
-194 44 0
-194 9 0
-194 5 0
-194 -28 0
-194 81 0
-194 -61 0
-194 -77 0
-194 -17 0
194 -22 -47 -44 -9 -5 28 -81 61 77 17 0
-195 -9 0
-195 -58 0
-195 -55 0
-195 44 0
-195 -87 0
-195 94 0
-195 48 0
-195 25 0
-195 39 0
-195 -4 0
195 9 58 55 -44 87 -94 -48 -25 -39 4 0
-196 -50 0
-196 52 0
-196 95 0
-196 -87 0
-196 20 0
-196 -28 0
-196 -73 0
-196 -71 0
-196 -69 0
-196 -44 0
196 50 -52 -95 87 -20 28 73 71 69 44 0
-197 -100 0
-197 -5 0
-197 -21 0
-197 -29 0
-197 -92 0
-197 55 0
-197 -41 0
-197 -64 0
-197 81 0
-197 -70 0
197 100 5 21 29 92 -55 41 64 -81 70 0
-198 -17 0
-198 -7 0
-198 -65 0
-198 -98 0
-198 29 0
-198 45 0
-198 32 0
-198 -42 0
-198 66 0
-198 76 0
198 17 7 65 98 -29 -45 -32 42 -66 -76 0
-199 -68 0
-199 35 0
-199 8 0
-199 -60 0
-199 6 0
-199 67 0
-199 -84 0
-199 -34 0
-199 9 0
-199 92 0
199 68 -35 -8 60 -6 -67 84 34 -9 -92 0
-200 4 0
-200 51 0
-200 68 0
-200 -76 0
-200 20 0
-200 -40 0
-200 -62 0
-200 7 0
-200 52 0
-200 -22 0
200 -4 -51 -68 76 -20 40 62 -7 -52 22 0
191 192 193 194 195 196 197 198 199 200 0
